c Random generated cnf formula, satisfiable: false
p cnf 10 50
5 -1 2 0
-8 -9 5 0
3 9 -5 0
2 -4 5 0
1 -4 -6 0
4 -2 -7 0
8 10 -6 0
6 -3 10 0
10 5 8 0
7 -3 -1 0
10 -2 3 0
9 6 7 0
-2 4 10 0
-6 -2 -3 0
6 -4 10 0
7 -3 4 0
-8 -1 -4 0
4 -2 -8 0
-8 -5 3 0
1 -9 -2 0
-7 5 1 0
-2 6 -7 0
4 7 -2 0
9 10 7 0
-1 -7 -10 0
9 4 -6 0
-1 6 8 0
-4 6 -9 0
3 -4 10 0
6 3 4 0
-4 8 2 0
9 1 -7 0
-9 3 -10 0
2 -6 9 0
-5 -4 -10 0
-7 9 4 0
-1 -6 -9 0
10 -5 -6 0
2 -1 10 0
-5 1 -10 0
9 -1 -7 0
6 8 -9 0
6 -8 -1 0
5 8 -1 0
9 -5 -4 0
9 5 -4 0
-2 -1 10 0
4 6 1 0
-2 -6 9 0
3 -8 1 0
